64 79 
16 28 
22 6 
39 93 
31 5 
60 35 
82 70 
36 54 
25 48 
68 88 
97 92 
83 30 
98 76 
30 24 
63 77 
94 28 
8 10 
8 30 
16 99 
23 0 
5 35 
35 39 
5 23 
93 83 
72 13 
71 69 
5 55 
99 4 
83 81 
80 46 
58 75 
26 66 
85 35 
48 54 
34 71 
6 39 
59 41 
78 16 
65 24 
99 89 
37 23 
10 43 
30 61 
99 13 
42 79 
11 1 
54 38 
19 92 
25 68 
98 59 
